; benchmark generated from python API
(set-info :status unknown)
(declare-datatypes ((RealState 0)) (((RMk1 (rval1 Real)) (RMk2 (rval2 Real)))))
 (assert
 (forall ((|v11:0| Real) )(forall ((|v10:1| Real) )(forall ((|v9:2| Real) )(forall ((|v8:3| Real) )(exists ((|v7:4_st| RealState) (val!3328 Real) )(exists ((|v6:5_st| RealState) (val!3329 Real) )(exists ((|v5:6_st| RealState) (val!3330 Real) )(exists ((|v4:7_st| RealState) (val!3331 Real) )(forall ((|v3:8| Real) )(forall ((|v2:9| Real) )(forall ((|v1:10| Real) )(forall ((|v0:11| Real) )(let ((?x2584 (+ (+ (* (- 11.0) |v8:3|) (* (- 15.0) (rval2 |v6:5_st|))) (* (- 19.0) (rval2 |v6:5_st|)))))
 (let ((?x1262 (* 2.0 |v10:1|)))
 (let ((?x2725 (* 16.0 |v11:0|)))
 (let ((?x2090 (+ (+ (+ (* (- 17.0) (rval2 |v4:7_st|)) (* 3.0 (rval2 |v6:5_st|))) ?x2725) ?x1262)))
 (let ((?x744 (- 10.0)))
 (let ((?x2140 (- 12.0)))
 (let ((?x1786 (* ?x2140 |v0:11|)))
 (let ((?x371 (+ (+ (+ (* (- 2.0) (rval2 |v4:7_st|)) (* 17.0 |v8:3|)) (* 14.0 |v3:8|)) ?x1786)))
 (let (($x2793 (or (and (<= ?x371 ?x744) (<= ?x2090 16.0)) (<= (+ ?x2584 (* (- 18.0) (rval2 |v5:6_st|))) 13.0))))
 (let ((?x589 (- 4.0)))
 (let ((?x2094 (+ (+ (+ (* ?x2140 |v2:9|) (* 2.0 |v11:0|)) (* (- 5.0) |v2:9|)) (* (- 5.0) |v10:1|))))
 (let ((?x439 (- 11.0)))
 (let ((?x2326 (* 14.0 |v9:2|)))
 (let ((?x2056 (* ?x2140 |v3:8|)))
 (let ((?x1299 (+ (* (- 8.0) |v3:8|) ?x2056)))
 (let (($x36 (and (<= (+ (+ ?x1299 (* (- 1.0) (rval2 |v7:4_st|))) ?x2326) ?x439) (<= ?x2094 ?x589))))
 (let ((?x2355 (+ (+ (+ (* 7.0 (rval2 |v4:7_st|)) |v9:2|) (* 3.0 (rval2 |v7:4_st|))) (* (- 16.0) (rval2 |v7:4_st|)))))
 (let ((?x1459 (+ (+ (+ (* (- 13.0) |v1:10|) (* 5.0 |v3:8|)) (* 19.0 (rval2 |v4:7_st|))) (* ?x744 |v9:2|))))
 (let ((?x640 (- 6.0)))
 (let ((?x2034 (rval2 |v7:4_st|)))
 (let ((?x2603 (* 17.0 ?x2034)))
 (let ((?x2790 (+ (+ (+ (* (- 8.0) (rval2 |v5:6_st|)) (* (- 3.0) |v9:2|)) ?x2603) (* 9.0 ?x2034))))
 (let ((?x1709 (rval2 |v4:7_st|)))
 (let ((?x498 (- 17.0)))
 (let ((?x3140 (* ?x498 ?x1709)))
 (let ((?x132 (+ (+ (+ (* (- 3.0) |v10:1|) (* (- 3.0) |v10:1|)) (* 9.0 |v0:11|)) ?x3140)))
 (let ((?x2833 (- 1.0)))
 (let ((?x355 (- 20.0)))
 (let ((?x646 (* ?x355 |v1:10|)))
 (let ((?x2840 (+ (+ (+ (* (- 19.0) ?x1709) (* 2.0 |v8:3|)) (* 8.0 (rval2 |v5:6_st|))) ?x646)))
 (let ((?x1000 (+ (+ (+ (* (- 15.0) |v2:9|) (* 11.0 ?x1709)) (* 12.0 |v9:2|)) (* (- 5.0) |v11:0|))))
 (let (($x2534 (or (or (<= ?x1000 15.0) (<= ?x2840 ?x2833)) (and (<= ?x132 ?x2140) (<= ?x2790 ?x640)))))
 (let ((?x3152 (* 7.0 |v1:10|)))
 (let (($x3016 (<= (+ (+ (+ (* ?x498 |v10:1|) (* 2.0 ?x1709)) (* (- 14.0) |v9:2|)) ?x3152) 7.0)))
 (let ((?x2305 (+ (+ (* (- 18.0) |v11:0|) (* (- 3.0) |v10:1|)) (* (- 2.0) |v9:2|))))
 (let ((?x3172 (+ (+ (+ (* 18.0 |v0:11|) (* (- 5.0) |v3:8|)) (* 8.0 |v11:0|)) (* 19.0 |v9:2|))))
 (let ((?x2598 (- 5.0)))
 (let ((?x3047 (* ?x2598 |v2:9|)))
 (let (($x2502 (and (<= (+ (+ (+ ?x2056 (* 3.0 ?x1709)) (* 9.0 |v1:10|)) ?x3047) 7.0) (<= ?x3172 3.0))))
 (let (($x2881 (or (and (and $x2502 (and (<= (+ ?x2305 (* ?x2833 |v11:0|)) ?x589) $x3016)) $x2534) (and (and (or (<= ?x1459 18.0) (<= ?x2355 2.0)) $x36) $x2793))))
 (let ((?x2661 (+ (+ (+ (* 11.0 |v2:9|) (* (- 19.0) |v9:2|)) (* (- 3.0) |v10:1|)) (* 13.0 |v10:1|))))
 (let ((?x1166 (+ (+ (* (- 15.0) (rval2 |v5:6_st|)) (* ?x640 (rval2 |v5:6_st|))) (* ?x355 ?x2034))))
 (let ((?x82 (* 12.0 |v3:8|)))
 (let ((?x461 (+ (+ (+ (* (- 9.0) (rval2 |v6:5_st|)) (* 17.0 |v8:3|)) (* 12.0 |v2:9|)) ?x82)))
 (let ((?x840 (* 18.0 ?x2034)))
 (let ((?x2926 (* 3.0 |v1:10|)))
 (let ((?x2771 (+ (+ (+ (* 2.0 (rval2 |v5:6_st|)) (* (- 9.0) (rval2 |v5:6_st|))) ?x2926) ?x840)))
 (let (($x1328 (or (and (<= ?x2771 18.0) (<= ?x461 ?x640)) (or (<= (+ ?x1166 ?x3152) 5.0) (<= ?x2661 8.0)))))
 (let ((?x894 (rval2 |v6:5_st|)))
 (let ((?x32 (* 11.0 ?x894)))
 (let ((?x1308 (+ (+ (+ (* 7.0 |v2:9|) (* (- 13.0) |v8:3|)) (* (- 15.0) |v8:3|)) ?x32)))
 (let ((?x1128 (+ (+ (+ (* ?x2833 |v9:2|) (* 0.0 |v8:3|)) (* (- 7.0) |v3:8|)) (* ?x640 ?x894))))
 (let ((?x705 (* 3.0 |v9:2|)))
 (let ((?x453 (+ (+ (+ (* (- 13.0) |v0:11|) (* (- 8.0) (rval2 |v5:6_st|))) ?x840) ?x705)))
 (let ((?x1894 (- 18.0)))
 (let ((?x1594 (* 2.0 ?x1709)))
 (let (($x3067 (<= (+ (+ (+ (* ?x589 |v8:3|) (* ?x2833 |v2:9|)) (* (- 19.0) ?x1709)) ?x1594) ?x1894)))
 (let (($x3015 (or (or $x3067 (<= ?x453 16.0)) (or (<= ?x1128 5.0) (<= ?x1308 ?x744)))))
 (let ((?x1161 (+ (+ (+ (* 17.0 |v2:9|) (* (- 7.0) |v10:1|)) (* 15.0 |v0:11|)) (* ?x744 |v8:3|))))
 (let ((?x1667 (- 13.0)))
 (let ((?x1356 (+ (+ (+ (* 13.0 ?x894) (* 17.0 ?x1709)) (* 12.0 (rval2 |v5:6_st|))) (* ?x589 ?x894))))
 (let ((?x184 (- 14.0)))
 (let ((?x1202 (* 17.0 |v0:11|)))
 (let (($x1388 (<= (+ (+ (+ (* (- 8.0) |v2:9|) (* 0.0 ?x894)) ?x840) ?x1202) ?x184)))
 (let ((?x2731 (* 14.0 |v10:1|)))
 (let ((?x2082 (+ (+ (+ (* 18.0 |v8:3|) (* (- 7.0) ?x1709)) (* (- 3.0) |v11:0|)) ?x2731)))
 (let ((?x3205 (+ (+ (+ (* (- 7.0) |v10:1|) (* ?x589 |v1:10|)) (* 10.0 |v3:8|)) (* 19.0 (rval2 |v5:6_st|)))))
 (let ((?x1872 (* ?x498 |v3:8|)))
 (let (($x1682 (<= (+ (+ (+ (* ?x439 |v8:3|) (* ?x439 |v0:11|)) (* 12.0 ?x1709)) ?x1872) ?x355)))
 (let ((?x1112 (* 6.0 |v3:8|)))
 (let (($x1923 (<= (+ (+ (+ (* 19.0 |v10:1|) (* (- 15.0) |v10:1|)) (* ?x640 |v11:0|)) ?x1112) 16.0)))
 (let (($x1061 (or (and (or $x1923 $x1682) (and (<= ?x3205 ?x589) (<= ?x2082 ?x2833))) (and (and $x1388 (<= ?x1356 ?x1667)) (<= ?x1161 ?x640)))))
 (let (($x2433 (<= (+ (+ (+ (* 15.0 |v1:10|) (* (- 7.0) |v0:11|)) (* ?x1894 |v8:3|)) ?x1786) ?x1667)))
 (let ((?x936 (- 9.0)))
 (let (($x2247 (<= (+ (+ (+ (* 9.0 |v2:9|) (* 4.0 |v11:0|)) |v2:9|) (* ?x1667 |v2:9|)) ?x936)))
 (let ((?x1397 (+ (+ (+ (* ?x355 ?x894) (* ?x936 |v9:2|)) (* (- 3.0) |v11:0|)) (* 10.0 |v9:2|))))
 (let ((?x2546 (+ (+ (+ (* (- 15.0) |v10:1|) (* ?x439 |v8:3|)) (* ?x2598 |v1:10|)) (* 8.0 |v10:1|))))
 (let ((?x1502 (+ (+ (+ (* ?x355 |v0:11|) (* 16.0 |v2:9|)) (* ?x589 |v10:1|)) (* (- 15.0) |v9:2|))))
 (let (($x748 (or (<= ?x1502 ?x2833) (or (and (<= ?x2546 ?x355) (<= ?x1397 6.0)) (or $x2247 $x2433)))))
 (let ((?x462 (* 2.0 |v3:8|)))
 (let ((?x2431 (+ (+ (+ (* 12.0 |v8:3|) (* 9.0 (rval2 |v5:6_st|))) (* 10.0 ?x894)) ?x462)))
 (let ((?x1595 (- 19.0)))
 (let ((?x1266 (* ?x1595 |v8:3|)))
 (let (($x828 (<= (+ (+ (+ (* ?x1595 |v2:9|) (* 10.0 |v11:0|)) (* (- 2.0) |v10:1|)) ?x1266) 15.0)))
 (let ((?x594 (+ (+ (+ (* 8.0 (rval2 |v5:6_st|)) (* 3.0 |v10:1|)) (* 8.0 |v2:9|)) (* (- 7.0) (rval2 |v5:6_st|)))))
 (let ((?x2600 (+ (+ (+ (* 7.0 |v8:3|) (* ?x2833 ?x894)) (* 17.0 ?x894)) (* ?x744 ?x1709))))
 (let ((?x1540 (- 7.0)))
 (let ((?x1672 (* 3.0 |v11:0|)))
 (let (($x161 (<= (+ (+ (+ (* ?x936 |v9:2|) (* ?x1595 |v9:2|)) (* ?x2140 |v9:2|)) ?x1672) ?x1540)))
 (let ((?x1877 (- 8.0)))
 (let ((?x2628 (* 4.0 |v8:3|)))
 (let (($x940 (<= (+ (+ (+ (* 20.0 ?x894) (* 8.0 ?x894)) (* ?x1540 ?x1709)) ?x2628) ?x1877)))
 (let ((?x2736 (- 15.0)))
 (let ((?x1415 (* ?x1540 |v1:10|)))
 (let (($x1616 (<= (+ (+ (+ (* 4.0 |v2:9|) (* 0.0 ?x1709)) (* 6.0 |v9:2|)) ?x1415) ?x2736)))
 (let (($x1416 (and (and (and $x1616 $x940) (or $x161 (<= ?x2600 ?x439))) (and (<= ?x594 18.0) (or $x828 (<= ?x2431 19.0))))))
 (let (($x2800 (<= (+ (+ (+ (* 0.0 |v11:0|) ?x1266) (* 18.0 ?x894)) (* 19.0 ?x894)) 9.0)))
 (let ((?x79 (+ (+ (+ (* 7.0 |v2:9|) (* (- 2.0) |v1:10|)) (* ?x936 ?x2034)) (* 6.0 ?x2034))))
 (let (($x438 (<= (+ (+ (+ ?x1202 (* 7.0 |v8:3|)) (* ?x1894 |v3:8|)) (* ?x640 |v11:0|)) 2.0)))
 (let ((?x2989 (* 20.0 |v0:11|)))
 (let (($x2925 (<= (+ (+ (+ (* ?x2833 |v0:11|) (* (- 16.0) |v2:9|)) (* 14.0 ?x2034)) ?x2989) ?x744)))
 (let ((?x2262 (+ (+ (+ (* 6.0 ?x1709) (* ?x1667 |v0:11|)) (* ?x1595 |v2:9|)) (* 15.0 |v8:3|))))
 (let ((?x666 (+ (+ (+ (* 2.0 |v1:10|) (* 6.0 |v0:11|)) (* 18.0 |v9:2|)) (* ?x2598 |v9:2|))))
 (let (($x712 (or (<= ?x666 0.0) (<= (+ (+ (+ ?x2603 ?x646) (* ?x1894 ?x894)) (* 15.0 |v10:1|)) ?x2598))))
 (let ((?x2227 (- 2.0)))
 (let ((?x2609 (* ?x2227 |v1:10|)))
 (let ((?x173 (* 0.0 |v2:9|)))
 (let (($x1321 (<= (+ (+ (+ (* 17.0 (rval2 |v5:6_st|)) (* ?x498 (rval2 |v5:6_st|))) ?x173) ?x2609) ?x1540)))
 (let ((?x2180 (rval2 |v5:6_st|)))
 (let ((?x749 (* 9.0 ?x2180)))
 (let (($x2325 (<= (+ (+ (+ (* 16.0 |v9:2|) (* 0.0 |v1:10|)) (* ?x1667 ?x1709)) ?x749) ?x640)))
 (let (($x1378 (or (or (or $x2325 $x1321) $x712) (and (or (<= ?x2262 9.0) $x2925) (or $x438 (<= ?x79 9.0))))))
 (let (($x1280 (and (or (or $x1378 $x2800) (and $x1416 $x748)) (and (or $x1061 (or $x3015 $x1328)) $x2881))))
 (let (($x3027 (not (= |v4:7_st| (RMk1 val!3331)))))
 (let (($x820 (not (= |v5:6_st| (RMk1 val!3330)))))
 (let (($x1286 (not (= |v6:5_st| (RMk1 val!3329)))))
 (let (($x2483 (not (= |v7:4_st| (RMk1 val!3328)))))
 (and $x2483 $x1286 $x820 $x3027 $x1280)))))))))))))))))))))))))))))))))))))))))))))))))))))))))))))))))))))))))))))))))))))))))))))))))))))))))))))))))))))))
 )
 )
 )
 )
 )
 )
 )
 )
 )
 )
 )
 )
(check-sat)
